(set-info :source |printed by MathSAT|)
(declare-fun call_voiture.flby5.next () Int)
(declare-fun param_m () Bool)
(declare-fun call_voiture.ite3 () Int)
(declare-fun speed.next () Int)
(declare-fun call_voiture.flby4.next () Int)
(declare-fun call_excludes2.excludes () Bool)
(declare-fun bump.next () Bool)
(declare-fun call_voiture.ite4.next () Int)
(declare-fun call_voiture.ite2 () Int)
(declare-fun stop.next () Bool)
(declare-fun call_voiture.speed () Int)
(declare-fun call_voiture.ite3.next () Int)
(declare-fun call_voiture.flby3.next () Bool)
(declare-fun call_Sofar.flby () Bool)
(declare-fun call_voiture.bump.next () Bool)
(declare-fun call_voiture.move.next () Bool)
(declare-fun call_voiture.bump () Bool)
(declare-fun call_voiture.flby3 () Bool)
(declare-fun call_voiture.ite.next () Int)
(declare-fun toofast () Bool)
(declare-fun _OK_.next () Bool)
(declare-fun call_voiture.meter.next () Bool)
(declare-fun dist.next () Int)
(declare-fun call_voiture.flby4 () Int)
(declare-fun call_voiture.speed.next () Int)
(declare-fun time.next () Int)
(declare-fun call_voiture.flby.next () Bool)
(declare-fun call_excludes2.excludes.next () Bool)
(declare-fun param_s.next () Bool)
(declare-fun call_voiture.toofast () Bool)
(declare-fun dist () Int)
(declare-fun call_Sofar.flby.next () Bool)
(declare-fun call_voiture.stop () Bool)
(declare-fun call_voiture.toofast.next () Bool)
(declare-fun call_voiture.time.next () Int)
(declare-fun speed () Int)
(declare-fun call_voiture.dist () Int)
(declare-fun move () Bool)
(declare-fun _OK_ () Bool)
(declare-fun call_voiture.flby2.next () Bool)
(declare-fun call_voiture.flby6 () Int)
(declare-fun bump () Bool)
(declare-fun call_voiture.ite2.next () Int)
(declare-fun call_voiture.time () Int)
(declare-fun second () Bool)
(declare-fun call_voiture.flby5 () Int)
(declare-fun call_voiture.flby6.next () Int)
(declare-fun call_voiture.second.next () Bool)
(declare-fun param_s () Bool)
(declare-fun time () Int)
(declare-fun stop () Bool)
(declare-fun call_voiture.second () Bool)
(declare-fun call_voiture.flby () Bool)
(declare-fun call_voiture.move () Bool)
(declare-fun call_Sofar.Sofar () Bool)
(declare-fun move.next () Bool)
(declare-fun env.next () Bool)
(declare-fun toofast.next () Bool)
(declare-fun param_m.next () Bool)
(declare-fun call_Sofar.Sofar.next () Bool)
(declare-fun meter () Bool)
(declare-fun call_voiture.stop.next () Bool)
(declare-fun second.next () Bool)
(declare-fun meter.next () Bool)
(declare-fun call_voiture.dist.next () Int)
(declare-fun call_voiture.flby2 () Bool)
(declare-fun env () Bool)
(declare-fun call_voiture.meter () Bool)
(define-fun .def_515 () Bool (= call_Sofar.flby.next call_Sofar.Sofar.next))
(define-fun .def_511 () Bool (and param_s.next param_m.next))
(define-fun .def_512 () Bool (not .def_511))
(define-fun .def_513 () Bool (= call_excludes2.excludes.next .def_512))
(define-fun .def_509 () Bool (= call_voiture.meter.next call_voiture.flby.next))
(define-fun .def_507 () Bool (= call_voiture.second.next call_voiture.flby2.next))
(define-fun .def_504 () Bool (= call_voiture.move.next call_voiture.flby3.next))
(define-fun .def_501 () Bool (= call_voiture.ite3.next 0))
(define-fun .def_497 () Bool (not call_voiture.move.next))
(define-fun .def_498 () Bool (or call_voiture.second.next .def_497))
(define-fun .def_500 () Bool (not .def_498))
(define-fun .def_502 () Bool (or .def_500 .def_501))
(define-fun .def_496 () Bool (= call_voiture.ite2.next call_voiture.ite3.next))
(define-fun .def_499 () Bool (or .def_496 .def_498))
(define-fun .def_503 () Bool (and .def_499 .def_502))
(define-fun .def_505 () Bool (and .def_503 .def_504))
(define-fun .def_494 () Bool (= call_voiture.flby6.next call_voiture.time.next))
(define-fun .def_492 () Bool (= call_voiture.flby5.next call_voiture.speed.next))
(define-fun .def_490 () Bool (= call_voiture.flby4.next call_voiture.dist.next))
(define-fun .def_487 () Bool (= call_voiture.dist.next 10))
(define-fun .def_488 () Bool (= call_voiture.bump.next .def_487))
(define-fun .def_484 () Bool (<= 4 call_voiture.time.next))
(define-fun .def_485 () Bool (= call_voiture.stop.next .def_484))
(define-fun .def_481 () Bool (<= 3 call_voiture.speed.next))
(define-fun .def_482 () Bool (= call_voiture.toofast.next .def_481))
(define-fun .def_479 () Bool (= env.next call_Sofar.Sofar.next))
(define-fun .def_476 () Bool (= call_voiture.meter.next meter.next))
(define-fun .def_473 () Bool (= call_voiture.second.next second.next))
(define-fun .def_470 () Bool (= call_voiture.move.next move.next))
(define-fun .def_467 () Bool (= time.next call_voiture.time.next))
(define-fun .def_463 () Bool (= speed.next call_voiture.speed.next))
(define-fun .def_460 () Bool (= dist.next call_voiture.dist.next))
(define-fun .def_456 () Bool (= bump.next call_voiture.bump.next))
(define-fun .def_452 () Bool (= stop.next call_voiture.stop.next))
(define-fun .def_448 () Bool (= toofast.next call_voiture.toofast.next))
(define-fun .def_443 () Bool (<= 0 speed.next))
(define-fun .def_441 () Bool (not env.next))
(define-fun .def_444 () Bool (or .def_441 .def_443))
(define-fun .def_445 () Bool (= _OK_.next .def_444))
(define-fun .def_449 () Bool (and .def_445 .def_448))
(define-fun .def_453 () Bool (and .def_449 .def_452))
(define-fun .def_457 () Bool (and .def_453 .def_456))
(define-fun .def_461 () Bool (and .def_457 .def_460))
(define-fun .def_464 () Bool (and .def_461 .def_463))
(define-fun .def_468 () Bool (and .def_464 .def_467))
(define-fun .def_471 () Bool (and .def_468 .def_470))
(define-fun .def_474 () Bool (and .def_471 .def_473))
(define-fun .def_477 () Bool (and .def_474 .def_476))
(define-fun .def_480 () Bool (and .def_477 .def_479))
(define-fun .def_483 () Bool (and .def_480 .def_482))
(define-fun .def_486 () Bool (and .def_483 .def_485))
(define-fun .def_489 () Bool (and .def_486 .def_488))
(define-fun .def_491 () Bool (and .def_489 .def_490))
(define-fun .def_493 () Bool (and .def_491 .def_492))
(define-fun .def_495 () Bool (and .def_493 .def_494))
(define-fun .def_506 () Bool (and .def_495 .def_505))
(define-fun .def_508 () Bool (and .def_506 .def_507))
(define-fun .def_510 () Bool (and .def_508 .def_509))
(define-fun .def_514 () Bool (and .def_510 .def_513))
(define-fun .def_516 () Bool (and .def_514 .def_515))
(define-fun .def_358 () Bool (= call_Sofar.Sofar call_Sofar.flby))
(define-fun .def_352 () Bool (and param_s param_m))
(define-fun .def_353 () Bool (not .def_352))
(define-fun .def_355 () Bool (= .def_353 call_excludes2.excludes))
(define-fun .def_348 () Bool (= call_voiture.meter call_voiture.flby))
(define-fun .def_345 () Bool (= call_voiture.second call_voiture.flby2))
(define-fun .def_341 () Bool (= call_voiture.move call_voiture.flby3))
(define-fun .def_337 () Bool (= call_voiture.ite3 0))
(define-fun .def_333 () Bool (not call_voiture.move))
(define-fun .def_334 () Bool (or call_voiture.second .def_333))
(define-fun .def_336 () Bool (not .def_334))
(define-fun .def_338 () Bool (or .def_336 .def_337))
(define-fun .def_332 () Bool (= call_voiture.ite2 call_voiture.ite3))
(define-fun .def_335 () Bool (or .def_332 .def_334))
(define-fun .def_339 () Bool (and .def_335 .def_338))
(define-fun .def_342 () Bool (and .def_339 .def_341))
(define-fun .def_328 () Bool (= call_voiture.time call_voiture.flby6))
(define-fun .def_325 () Bool (= call_voiture.speed call_voiture.flby5))
(define-fun .def_322 () Bool (= call_voiture.dist call_voiture.flby4))
(define-fun .def_318 () Bool (= call_voiture.dist 10))
(define-fun .def_319 () Bool (= call_voiture.bump .def_318))
(define-fun .def_315 () Bool (<= 4 call_voiture.time))
(define-fun .def_316 () Bool (= call_voiture.stop .def_315))
(define-fun .def_312 () Bool (<= 3 call_voiture.speed))
(define-fun .def_313 () Bool (= call_voiture.toofast .def_312))
(define-fun .def_310 () Bool (= env call_Sofar.Sofar))
(define-fun .def_307 () Bool (= meter call_voiture.meter))
(define-fun .def_303 () Bool (= second call_voiture.second))
(define-fun .def_299 () Bool (= move call_voiture.move))
(define-fun .def_295 () Bool (= time call_voiture.time))
(define-fun .def_291 () Bool (= speed call_voiture.speed))
(define-fun .def_288 () Bool (= dist call_voiture.dist))
(define-fun .def_284 () Bool (= bump call_voiture.bump))
(define-fun .def_280 () Bool (= stop call_voiture.stop))
(define-fun .def_276 () Bool (= toofast call_voiture.toofast))
(define-fun .def_271 () Bool (<= 0 speed))
(define-fun .def_269 () Bool (not env))
(define-fun .def_272 () Bool (or .def_269 .def_271))
(define-fun .def_273 () Bool (= _OK_ .def_272))
(define-fun .def_277 () Bool (and .def_273 .def_276))
(define-fun .def_281 () Bool (and .def_277 .def_280))
(define-fun .def_285 () Bool (and .def_281 .def_284))
(define-fun .def_289 () Bool (and .def_285 .def_288))
(define-fun .def_292 () Bool (and .def_289 .def_291))
(define-fun .def_296 () Bool (and .def_292 .def_295))
(define-fun .def_300 () Bool (and .def_296 .def_299))
(define-fun .def_304 () Bool (and .def_300 .def_303))
(define-fun .def_308 () Bool (and .def_304 .def_307))
(define-fun .def_311 () Bool (and .def_308 .def_310))
(define-fun .def_314 () Bool (and .def_311 .def_313))
(define-fun .def_317 () Bool (and .def_314 .def_316))
(define-fun .def_320 () Bool (and .def_317 .def_319))
(define-fun .def_323 () Bool (and .def_320 .def_322))
(define-fun .def_326 () Bool (and .def_323 .def_325))
(define-fun .def_329 () Bool (and .def_326 .def_328))
(define-fun .def_343 () Bool (and .def_329 .def_342))
(define-fun .def_346 () Bool (and .def_343 .def_345))
(define-fun .def_349 () Bool (and .def_346 .def_348))
(define-fun .def_356 () Bool (and .def_349 .def_355))
(define-fun .def_359 () Bool (and .def_356 .def_358))
(define-fun .def_517 () Bool (and .def_359 .def_516))
(define-fun .def_435 () Bool (and call_Sofar.Sofar call_excludes2.excludes.next))
(define-fun .def_437 () Bool (= .def_435 call_Sofar.flby.next))
(define-fun .def_432 () Bool (= call_voiture.ite4.next call_voiture.flby6.next))
(define-fun .def_429 () Bool (= call_voiture.flby5.next call_voiture.ite3.next))
(define-fun .def_425 () Bool (= call_voiture.ite.next call_voiture.flby4.next))
(define-fun .def_419 () Bool (not call_voiture.bump))
(define-fun .def_417 () Bool (not call_voiture.toofast))
(define-fun .def_415 () Bool (not call_voiture.stop))
(define-fun .def_416 () Bool (and call_voiture.move .def_415))
(define-fun .def_418 () Bool (and .def_416 .def_417))
(define-fun .def_420 () Bool (and .def_418 .def_419))
(define-fun .def_422 () Bool (= .def_420 call_voiture.flby3.next))
(define-fun .def_413 () Bool (= param_s.next call_voiture.flby2.next))
(define-fun .def_406 () Bool (not param_s.next))
(define-fun .def_408 () Bool (and .def_406 param_m.next))
(define-fun .def_410 () Bool (= .def_408 call_voiture.flby.next))
(define-fun .def_401 () Bool (not call_voiture.second.next))
(define-fun .def_398 () Int (* (- 1) call_voiture.ite4.next))
(define-fun .def_399 () Int (+ call_voiture.time .def_398))
(define-fun .def_400 () Bool (= .def_399 (- 1)))
(define-fun .def_402 () Bool (or .def_400 .def_401))
(define-fun .def_395 () Bool (= call_voiture.time call_voiture.ite4.next))
(define-fun .def_397 () Bool (or .def_395 call_voiture.second.next))
(define-fun .def_403 () Bool (and .def_397 .def_402))
(define-fun .def_388 () Int (* (- 1) call_voiture.ite.next))
(define-fun .def_389 () Int (+ call_voiture.dist .def_388))
(define-fun .def_390 () Bool (= .def_389 (- 1)))
(define-fun .def_377 () Bool (and call_voiture.move.next call_voiture.meter.next))
(define-fun .def_382 () Bool (not .def_377))
(define-fun .def_391 () Bool (or .def_382 .def_390))
(define-fun .def_386 () Bool (= call_voiture.dist call_voiture.ite.next))
(define-fun .def_387 () Bool (or .def_377 .def_386))
(define-fun .def_392 () Bool (and .def_387 .def_391))
(define-fun .def_379 () Int (* (- 1) call_voiture.ite2.next))
(define-fun .def_380 () Int (+ call_voiture.speed .def_379))
(define-fun .def_381 () Bool (= .def_380 1))
(define-fun .def_383 () Bool (or .def_381 .def_382))
(define-fun .def_374 () Bool (= call_voiture.speed call_voiture.ite2.next))
(define-fun .def_378 () Bool (or .def_374 .def_377))
(define-fun .def_384 () Bool (and .def_378 .def_383))
(define-fun .def_393 () Bool (and .def_384 .def_392))
(define-fun .def_404 () Bool (and .def_393 .def_403))
(define-fun .def_411 () Bool (and .def_404 .def_410))
(define-fun .def_414 () Bool (and .def_411 .def_413))
(define-fun .def_423 () Bool (and .def_414 .def_422))
(define-fun .def_426 () Bool (and .def_423 .def_425))
(define-fun .def_430 () Bool (and .def_426 .def_429))
(define-fun .def_433 () Bool (and .def_430 .def_432))
(define-fun .def_438 () Bool (and .def_433 .def_437))
(define-fun .def_518 () Bool (and .def_438 .def_517))
(assert .def_518)
